--- Job feedOptimizer.gms Start 06/17/20 16:59:05 31.1.0 r55b6ce3 WEX-WEI x86 64bit/MS Windows
--- Applying:
    E:\31.1\gmsprmNT.txt
--- GAMS Parameters defined
    Input C:\Users\hasee\Documents\GitHub\GAMS-MIRO\feedopt\feedOptimizer.gms
    ScrDir C:\Users\hasee\Documents\GitHub\GAMS-MIRO\feedopt\225a\
    SysDir E:\31.1\
    CurDir C:\Users\hasee\Documents\GitHub\GAMS-MIRO\feedopt\
    LogOption 3
    Trace C:\Users\hasee\Documents\GitHub\GAMS-MIRO\feedopt\_sys_trace_feedoptimizer.trc
    InputDir1 C:\Users\hasee\Documents\GitHub\GAMS-MIRO\feedopt\
    TraceOpt 3
    ExecMode 0
    LstTitleLeftAligned 1
    IDCGDXInput _miro_gdxin_.gdx
    IDCGDXOutput _miro_gdxout_.gdx
GAMS 31.1.0   Copyright (C) 1987-2020 GAMS Development. All rights reserved
*** License has expired 8 days ago
Licensee: CS526 Advanced Linear Programming              G200210/0001AS-GEN
          Course License UW-Madison, Prof Ferris, Spring 2020        DCE515
          E:\31.1\gamslice.txt
          Evaluation license: Not for commercial or production use
--- Starting compilation
--- feedOptimizer.gms(26) 2 Mb
--- GDXin=C:\Users\hasee\Documents\GitHub\GAMS-MIRO\feedopt\_miro_gdxin_.gdx
--- feedOptimizer.gms(35) 3 Mb
--- GDXin=C:\Users\hasee\Documents\GitHub\GAMS-MIRO\feedopt\_miro_gdxin_.gdx
--- feedOptimizer.gms(237) 3 Mb
--- Starting execution: elapsed 0:00:00.008
--- feedOptimizer.gms(102) 4 Mb--- feedOptimizer.gms(197) 4 Mb
--- Generating MIP model feedOptimizer
--- feedOptimizer.gms(199) 7 Mb
---   10,373 rows  5,425 columns  34,249 non-zeroes
---   5,280 discrete-columns
--- Executing CPLEX: elapsed 0:00:00.353

IBM ILOG CPLEX   31.1.0 r55b6ce3 Released May 01, 2020 WEI x86 64bit/MS Window
--- GAMS/Cplex licensed for continuous and discrete problems.
Cplex 12.10.0.0

Reading data...
Starting Cplex...
Space for names approximately 0.44 Mb
Use option 'names no' to turn use of names off
Version identifier: 12.10.0.0 | 2019-11-26 | 843d4de2ae
CPXPARAM_Advance                                 0
CPXPARAM_Threads                                 1
CPXPARAM_Parallel                                1
CPXPARAM_MIP_Display                             4
CPXPARAM_Simplex_Limits_Iterations               2000000000
CPXPARAM_TimeLimit                               30
CPXPARAM_Tune_TimeLimit                          6
CPXPARAM_MIP_Tolerances_AbsMIPGap                0
CPXPARAM_MIP_Tolerances_MIPGap                   0.10000000000000001
CPXPARAM_WorkDir                                 "C:\Users\hasee\Documents\GitHub\GAMS-MIRO\feedopt\225a\"
Found incumbent of value 0.000000 after 0.00 sec. (0.20 ticks)
Tried aggregator 3 times.
MIP Presolve eliminated 7825 rows and 3595 columns.
MIP Presolve modified 4087 coefficients.
Aggregator did 840 substitutions.
Reduced MIP has 1708 rows, 990 columns, and 6831 nonzeros.
Reduced MIP has 930 binaries, 0 generals, 0 SOSs, and 0 indicators.
Presolve time = 0.03 sec. (35.28 ticks)
Probing time = 0.00 sec. (1.26 ticks)
Tried aggregator 1 time.
Detecting symmetries...
MIP Presolve eliminated 12 rows and 12 columns.
MIP Presolve modified 450 coefficients.
Reduced MIP has 1696 rows, 978 columns, and 6771 nonzeros.
Reduced MIP has 918 binaries, 0 generals, 0 SOSs, and 0 indicators.
Presolve time = 0.00 sec. (5.35 ticks)
Probing time = 0.01 sec. (1.25 ticks)
Clique table members: 72.
MIP emphasis: balance optimality and feasibility.
MIP search method: dynamic search.
Parallel mode: none, using 1 thread.
Tried aggregator 1 time.
No LP presolve or aggregator reductions.
Presolve time = 0.00 sec. (0.77 ticks)

Iteration log . . .
Iteration:     1   Dual objective     =         83156.574418
Iteration:    65   Dual objective     =         47551.612376
Perturbation started.
Iteration:   153   Dual objective     =         47551.612376
Iteration:   255   Dual objective     =         47541.702898
Iteration:   377   Dual objective     =         47517.980240
Iteration:   484   Dual objective     =         47421.089506
Iteration:   587   Dual objective     =         47420.747162
Iteration:   682   Dual objective     =         47420.747110
Iteration:   770   Dual objective     =         47340.978519
Iteration:   871   Dual objective     =         47032.954013
Iteration:   978   Dual objective     =         46405.444531
Iteration:  1079   Dual objective     =         45331.792697
Iteration:  1158   Dual objective     =         44226.920722
Iteration:  1252   Dual objective     =         43877.822919
Removing perturbation.

Iteration log . . .
Iteration:     1   Dual objective     =         43876.828435
Iteration:   245   Dual objective     =         43876.828435
Root relaxation solution time = 0.06 sec. (66.44 ticks)

        Nodes                                         Cuts/
   Node  Left     Objective  IInf  Best Integer    Best Bound    ItCnt     Gap

*     0+    0                            0.0000    83392.0595              --- 
Found incumbent of value 0.000000 after 0.14 sec. (112.57 ticks)
      0     0    43876.8284   570        0.0000    43876.8284     1262     --- 
*     0+    0                        15866.6124    43876.8284           176.54%
Found incumbent of value 15866.612361 after 0.16 sec. (123.25 ticks)
      0     0    40773.8470   570    15866.6124     Cuts: 524     2069  156.98%
      0     0    40125.3008   570    15866.6124     Cuts: 524     2641  152.89%
      0     0    39702.1499   570    15866.6124     Cuts: 524     3351  150.22%
      0     0    39455.3754   570    15866.6124     Cuts: 524     4080  148.67%
      0     0    39354.1984   570    15866.6124     Cuts: 524     4539  148.03%
*     0+    0                        16381.1448    39354.1984           140.24%
Found incumbent of value 16381.144760 after 1.09 sec. (784.97 ticks)
Detecting symmetries...
      0     0    39198.1109   570    16381.1448     Cuts: 345     5043  139.29%
      0     0    39168.1850   570    16381.1448     Cuts: 460     5378  139.11%
      0     0    39140.3055   570    16381.1448     Cuts: 327     5675  138.94%
      0     0    39096.0037   570    16381.1448     Cuts: 272     5978  138.66%
      0     0    39057.6197   570    16381.1448     Cuts: 421     6283  138.43%
      0     0    39050.9626   570    16381.1448     Cuts: 355     6525  138.39%
      0     0    39026.3959   570    16381.1448     Cuts: 363     6838  138.24%
      0     0    39012.2309   570    16381.1448     Cuts: 342     7081  138.15%
      0     0    38976.1922   570    16381.1448     Cuts: 428     7421  137.93%
*     0+    0                        18136.7911    38976.1922           114.90%
Found incumbent of value 18136.791105 after 1.78 sec. (1203.11 ticks)
      0     0    38928.4339   570    18136.7911     Cuts: 279     7920  114.64%
      0     0    38920.5564   570    18136.7911     Cuts: 437     8206  114.59%
      0     0    38896.0454   570    18136.7911     Cuts: 217     8526  114.46%
      0     0    38849.7837   570    18136.7911     Cuts: 392     8917  114.20%
      0     0    38825.0627   570    18136.7911     Cuts: 272     9165  114.07%
      0     0    38797.3961   570    18136.7911     Cuts: 258     9386  113.92%
      0     0    38783.9374   570    18136.7911     Cuts: 202     9690  113.84%
      0     0    38769.1921   570    18136.7911     Cuts: 338    10007  113.76%
      0     0    38767.3238   570    18136.7911     Cuts: 279    10237  113.75%
      0     0    38754.7933   570    18136.7911     Cuts: 140    10595  113.68%
      0     0    38746.3551   570    18136.7911     Cuts: 524    11104  113.63%
Detecting symmetries...
      0     2    38746.3551   616    18136.7911    38744.4936    11104  113.62%
Elapsed time = 3.05 sec. (2117.78 ticks, tree = 0.01 MB, solutions = 3)
      7     9    37859.0292   513    18136.7911    38465.0326    14712  112.08%
     11    13    37063.9403   418    18136.7911    38465.0326    17710  112.08%
     99    43    38319.6343   504    18136.7911    38451.9269    19550  112.01%
                                                     Cuts: 23                  
*   100+   42                        18302.2373    38451.9269           110.09%
Found incumbent of value 18302.237346 after 3.97 sec. (2946.48 ticks)
    110    54    33027.8570   258    18302.2373    38451.9269    22029  110.09%
*   116    56      integral     0    18310.6873    38451.9269    22484  110.00%
Found incumbent of value 18310.687302 after 4.19 sec. (3148.95 ticks)
    125    64    35408.6905   517    18310.6873    38214.0083    24319  108.70%
                                                      Cuts: 3                  
*   130+   67                        18343.1433    38214.0083           108.33%
Found incumbent of value 18343.143318 after 4.52 sec. (3436.63 ticks)
*   160+   96                        18555.5213    38214.0083           105.94%
Found incumbent of value 18555.521302 after 4.56 sec. (3484.92 ticks)
    181   111    31361.3018   462    18555.5213    38212.2136    28751  105.93%
*   200+  105                        19708.9211    38050.9742            93.06%
                                                 Impl Bds: 19                  
Found incumbent of value 19708.921137 after 4.97 sec. (3856.32 ticks)
    200   107    24626.0828   180    19708.9211    38050.9742    33268   93.06%
    220   121    35753.8853   464    19708.9211    38005.4457    36546   92.83%
                                                  Impl Bds: 4                  
*   240+  115                        20593.4952    38005.4457            84.55%
Found incumbent of value 20593.495175 after 5.38 sec. (4217.14 ticks)
    270   140    35189.5014   566    20593.4952    37991.6176    41063   84.48%
*   340+  172                        20901.8832    37842.7180            81.05%
                                                     Cuts: 28                  
Found incumbent of value 20901.883157 after 6.50 sec. (5179.61 ticks)
    385   197    32677.5318   362    20901.8832    37808.9494    55426   80.89%
                                                     Cuts: 12                  
Elapsed time = 6.69 sec. (5367.82 ticks, tree = 0.68 MB, solutions = 10)
*   430+  225                        21057.4718    37801.6332            79.52%
                                                  Impl Bds: 2                  
Found incumbent of value 21057.471847 after 6.89 sec. (5556.66 ticks)
*   530+  276                        21393.0636    37750.5105            76.46%
                                                     Cuts: 10                  
Found incumbent of value 21393.063587 after 7.44 sec. (6043.67 ticks)
    593   330    33034.5387   392    21393.0636    37641.9841    73279   75.95%
                                                 Impl Bds: 10                  
    780   440    28792.9682   213    21393.0636    37299.3948    90543   74.35%
                                                     Cuts: 30                  
   1082   653    21502.7664    48    21393.0636    37091.6867   108363   73.38%
                                                     Cuts: 15                  

Performing restart 1

Repeating presolve.
Tried aggregator 1 time.
Reduced MIP has 1696 rows, 978 columns, and 6771 nonzeros.
Reduced MIP has 918 binaries, 0 generals, 0 SOSs, and 0 indicators.
Presolve time = 0.00 sec. (4.07 ticks)
Tried aggregator 1 time.
Reduced MIP has 1696 rows, 978 columns, and 6771 nonzeros.
Reduced MIP has 918 binaries, 0 generals, 0 SOSs, and 0 indicators.
Presolve time = 0.02 sec. (5.10 ticks)
Represolve time = 0.05 sec. (25.73 ticks)
Tried aggregator 1 time.
LP Presolve eliminated 53 rows and 0 columns.
Reduced LP has 2143 rows, 978 columns, and 9319 nonzeros.
Presolve time = 0.00 sec. (1.37 ticks)

Iteration log . . .
Iteration:     1   Dual objective     =         76241.857808
Iteration:    75   Dual objective     =         46418.822816
Iteration:   185   Dual objective     =         43762.075347
Perturbation started.
Iteration:   204   Dual objective     =         43762.075347
Iteration:   304   Dual objective     =         43157.772715
Iteration:   411   Dual objective     =         42919.301542
Iteration:   515   Dual objective     =         42830.227966
Iteration:   604   Dual objective     =         42643.142091
Iteration:   685   Dual objective     =         42560.146669
Iteration:   773   Dual objective     =         42218.083902
Iteration:   873   Dual objective     =         41697.621431
Iteration:   960   Dual objective     =         41424.866468
Iteration:  1069   Dual objective     =         41319.578957
Iteration:  1155   Dual objective     =         41073.871562
Iteration:  1237   Dual objective     =         40697.840158
Iteration:  1313   Dual objective     =         40098.311946
Iteration:  1398   Dual objective     =         39904.940673
Iteration:  1484   Dual objective     =         39734.632974
Iteration:  1576   Dual objective     =         39656.286443
Iteration:  1654   Dual objective     =         39491.787494
Iteration:  1739   Dual objective     =         39291.774286
Iteration:  1813   Dual objective     =         39152.230462
Iteration:  1885   Dual objective     =         39060.988062
Iteration:  1984   Dual objective     =         39034.300340
Iteration:  2065   Dual objective     =         38974.776622
Iteration:  2151   Dual objective     =         38911.836489
Iteration:  2231   Dual objective     =         38867.223922
Iteration:  2315   Dual objective     =         38836.363340
Iteration:  2405   Dual objective     =         38778.108504
Iteration:  2512   Dual objective     =         38765.100650
Iteration:  2608   Dual objective     =         38749.337274
Removing perturbation.
Initializing dual steep norms . . .

Iteration log . . .
Iteration:     1   Dual objective     =         38746.355146
   1148     0    38630.4708   621    21393.0636     Cuts: 524   116628   73.22%
   1148     0    38554.1546   621    21393.0636     Cuts: 524   117278   73.22%
   1148     0    38443.4629   621    21393.0636     Cuts: 524   117916   73.22%
   1148     0    38370.3992   621    21393.0636     Cuts: 524   118690   73.22%
   1148     0    38319.1139   621    21393.0636     Cuts: 524   119233   73.22%
   1148     0    38142.9934   621    21393.0636     Cuts: 404   120244   73.22%
   1148     0    38105.5856   621    21393.0636     Cuts: 524   120998   73.22%
   1148     0    38007.0995   621    21393.0636     Cuts: 524   121769   73.22%
   1148     0    37967.4623   621    21393.0636     Cuts: 524   122498   73.22%
   1148     2    37967.4623   569    21393.0636    37056.8187   122498   73.22%
   1156    10    37184.5947   493    21393.0636    37056.8187   125912   73.22%
   1188    42    32537.6623   345    21393.0636    37056.8187   131758   73.22%
   1239    87    36816.9811   566    21393.0636    37056.8187   138251   73.22%
                                                    Cuts: 278                  
   1273   121    27560.4703   328    21393.0636    37056.8187   148183   73.22%
   1386   212    29071.7834   376    21393.0636    37056.8187   160476   73.22%
   1472   292    28539.5659   273    21393.0636    37056.8187   170313   73.22%
                                                    Cuts: 125                  
Elapsed time = 24.19 sec. (20788.82 ticks, tree = 0.37 MB, solutions = 12)
   1541   350    33726.0837   490    21393.0636    37056.8187   181587   73.22%
                                                    Cuts: 102                  
   1646   442    35924.7608   519    21393.0636    37056.8187   195191   73.22%
                                                     Cuts: 80                  
   1739   527    33474.2524   477    21393.0636    37056.8187   207427   73.22%
Starting limited solution polishing.
   1804   585    34940.0716   592    21393.0636    37022.4967   217607   73.06%
                                                    Cuts: 107                  
   1885   654    36071.7203   613    21393.0636    36818.6332   228706   72.11%
                                                     Cuts: 68                  

GUB cover cuts applied:  1
Cover cuts applied:  234
Implied bound cuts applied:  2
Flow cuts applied:  384
Mixed integer rounding cuts applied:  247
Zero-half cuts applied:  123
Lift and project cuts applied:  71
Gomory fractional cuts applied:  27

Root node processing (before b&c):
  Real time             =    3.03 sec. (2117.54 ticks)
Sequential b&c:
  Real time             =   26.99 sec. (24264.75 ticks)
                          ------------
Total (root+branch&cut) =   30.02 sec. (26382.29 ticks)
MIP status(107): time limit exceeded
Cplex Time: 30.02sec (det. 26382.30 ticks)
Fixing integer variables, and solving final LP...
Version identifier: 12.10.0.0 | 2019-11-26 | 843d4de2ae
CPXPARAM_Advance                                 2
CPXPARAM_Threads                                 1
CPXPARAM_Parallel                                1
CPXPARAM_MIP_Display                             4
CPXPARAM_Simplex_Limits_Iterations               2000000000
CPXPARAM_TimeLimit                               30
CPXPARAM_Tune_TimeLimit                          6
CPXPARAM_MIP_Tolerances_AbsMIPGap                0
CPXPARAM_MIP_Tolerances_MIPGap                   0.10000000000000001
CPXPARAM_WorkDir                                 "C:\Users\hasee\Documents\GitHub\GAMS-MIRO\feedopt\225a\"
Tried aggregator 1 time.
LP Presolve eliminated 10373 rows and 5425 columns.
All rows and columns eliminated.
Presolve time = 0.00 sec. (4.25 ticks)
Fixed MIP status(1): optimal
Cplex Time: 0.28sec (det. 7.97 ticks)

Resource limit exceeded.

MIP Solution:        21393.063587    (235662 iterations, 1943 nodes)
Final Solve:         21393.063587    (0 iterations)

Best possible:       36812.488220
Absolute gap:        15419.424633
Relative gap:            0.418864

--- Restarting execution
--- feedOptimizer.gms(199) 3 Mb
--- Reading solution for model feedOptimizer
--- feedOptimizer.gms(235) 4 Mb
--- GDX File C:\Users\hasee\Documents\GitHub\GAMS-MIRO\feedopt\_miro_gdxout_.gdx
*** Status: Normal completion
--- Job feedOptimizer.gms Stop 06/17/20 16:59:36 elapsed 0:00:30.968
